* ENCODING=ISO-8859-1
NAME          CPLEX
ROWS
 N  obj1    
 G  c1      
 G  c2      
 G  c3      
 G  c4      
 G  c5      
 G  c6      
 G  c7      
 G  c8      
 G  c9      
 G  c10     
 G  c11     
 G  c12     
 G  c13     
 G  c14     
 G  c15     
 G  c16     
 G  c17     
 G  c18     
 G  c19     
 G  c20     
 G  c21     
 G  c22     
 G  c23     
 G  c24     
 G  c25     
 G  c26     
 G  c27     
 G  c28     
 G  c29     
 G  c30     
 G  c31     
 G  c32     
 G  c33     
 G  c34     
 G  c35     
 G  c36     
 G  c37     
 G  c38     
 G  c39     
 G  c40     
 G  c41     
 G  c42     
 G  c43     
 G  c44     
 G  c45     
 G  c46     
 G  c47     
 G  c48     
 G  c49     
 G  c50     
 G  c51     
 G  c52     
 G  c53     
 G  c54     
 G  c55     
 G  c56     
 G  c57     
 G  c58     
 G  c59     
 G  c60     
 G  c61     
 G  c62     
 G  c63     
 G  c64     
 G  c65     
 G  c66     
 G  c67     
 G  c68     
 G  c69     
 G  c70     
COLUMNS
    MARK0000  'MARKER'                 'INTORG'
    x1        obj1                            1
    x1        c12                           907
    x1        c19                           811
    x1        c25                           130
    x1        c33                           758
    x1        c50                           412
    x1        c63                           853
    x1        c64                           815
    x2        obj1                            1
    x2        c12                           812
    x2        c14                           393
    x2        c37                           293
    x2        c59                           234
    x2        c61                           322
    x3        obj1                            1
    x3        c13                           687
    x3        c19                           220
    x3        c33                           182
    x3        c39                           848
    x3        c55                           356
    x3        c58                           759
    x3        c65                           203
    x3        c66                           833
    x3        c67                           745
    x4        obj1                            1
    x4        c2                            828
    x4        c8                            775
    x4        c10                           949
    x4        c13                           450
    x4        c14                           961
    x4        c32                           281
    x4        c43                           526
    x4        c45                           792
    x4        c50                           855
    x4        c51                           765
    x4        c52                           171
    x4        c54                           683
    x4        c68                           708
    x4        c70                           617
    x5        obj1                            1
    x5        c23                           107
    x5        c39                           924
    x5        c54                           576
    x6        obj1                            1
    x6        c13                           733
    x6        c15                           765
    x6        c21                           130
    x6        c30                           651
    x6        c32                           718
    x6        c46                           795
    x6        c49                           887
    x7        obj1                            1
    x7        c5                            780
    x7        c26                           607
    x7        c28                           702
    x7        c37                           878
    x7        c42                           322
    x7        c56                           908
    x7        c59                           123
    x7        c69                           167
    x8        obj1                            1
    x8        c9                            432
    x8        c16                           933
    x8        c18                           985
    x8        c29                           818
    x8        c37                           644
    x8        c43                           791
    x8        c52                           507
    x8        c65                           269
    x9        obj1                            1
    x9        c3                            138
    x9        c8                            228
    x9        c9                            434
    x9        c27                           159
    x9        c32                           107
    x9        c50                           480
    x9        c60                           993
    x9        c63                           641
    x10       obj1                            1
    x10       c2                            448
    x10       c6                            818
    x10       c11                           963
    x10       c18                           353
    x10       c23                           794
    x10       c25                           527
    x10       c31                           832
    x10       c32                           302
    x10       c33                           293
    x10       c50                           327
    x10       c65                           856
    x11       obj1                            1
    x11       c1                            695
    x11       c3                            888
    x11       c5                            939
    x11       c10                           201
    x11       c15                           176
    x11       c24                           569
    x11       c30                           540
    x11       c48                           929
    x11       c69                           199
    x12       obj1                            1
    x12       c11                           112
    x12       c24                           279
    x12       c35                           147
    x12       c37                           158
    x12       c46                           743
    x12       c54                           253
    x12       c56                           280
    x12       c64                           345
    x13       obj1                            1
    x13       c4                            741
    x13       c11                           670
    x13       c54                           167
    x13       c63                           236
    x14       obj1                            1
    x14       c3                            594
    x14       c10                           949
    x14       c12                           640
    x14       c14                           832
    x14       c65                           894
    x14       c67                           570
    x15       obj1                            1
    x15       c18                           823
    x15       c42                           489
    x15       c58                           981
    x15       c60                           457
    x15       c70                           887
    x16       obj1                            1
    x16       c10                           177
    x16       c14                           226
    x16       c16                           931
    x16       c23                           682
    x16       c31                           767
    x16       c33                           674
    x16       c37                           892
    x16       c44                           408
    x16       c46                           654
    x16       c57                           633
    x17       obj1                            1
    x17       c22                           349
    x17       c24                           401
    x17       c31                           659
    x17       c41                           606
    x18       obj1                            1
    x18       c17                           702
    x18       c21                           788
    x18       c22                           465
    x18       c26                           402
    x18       c32                           931
    x18       c46                           760
    x18       c69                           568
    x19       obj1                            1
    x19       c23                           239
    x19       c32                           424
    x19       c45                           427
    x19       c62                           932
    x19       c68                           156
    x20       obj1                            1
    x20       c13                           248
    x20       c19                           311
    x20       c21                           142
    x20       c34                           685
    x20       c37                           848
    x20       c58                           790
    x20       c66                           643
    x21       obj1                            1
    x21       c7                            873
    x21       c17                           711
    x21       c23                           568
    x21       c31                           706
    x21       c51                           441
    x21       c69                           597
    x21       c70                           751
    x22       obj1                            1
    x22       c19                           687
    x22       c37                           593
    x22       c45                           957
    x23       obj1                            1
    x23       c15                           674
    x23       c36                           826
    x23       c54                           553
    x23       c60                           748
    x23       c67                           976
    x24       obj1                            1
    x24       c7                            276
    x24       c17                           302
    x24       c24                           456
    x25       obj1                            1
    x25       c5                            258
    x25       c10                           508
    x25       c16                           693
    x25       c27                           142
    x25       c38                           691
    x25       c39                           771
    x25       c52                           557
    x25       c63                           219
    x25       c67                           872
    x26       obj1                            1
    x26       c2                            424
    x26       c4                            440
    x26       c26                           617
    x26       c38                           770
    x27       obj1                            1
    x27       c10                           338
    x27       c11                           262
    x27       c28                           586
    x27       c61                           670
    x27       c69                           806
    x28       obj1                            1
    x28       c2                            972
    x28       c38                           640
    x28       c64                           308
    x28       c67                           498
    x28       c68                           843
    x29       obj1                            1
    x29       c4                            548
    x29       c6                            890
    x29       c9                            935
    x29       c19                           857
    x29       c30                           592
    x29       c64                           881
    x30       obj1                            1
    x30       c27                           214
    x30       c35                           996
    x30       c43                           614
    x30       c53                           787
    x30       c57                           882
    x31       obj1                            1
    x31       c10                           147
    x31       c16                           936
    x31       c29                           790
    x31       c34                           231
    x31       c36                           402
    x31       c39                           701
    x31       c52                           270
    x32       obj1                            1
    x32       c5                            834
    x32       c11                           262
    x32       c16                           804
    x32       c17                           968
    x32       c18                           153
    x32       c32                           198
    x32       c42                           465
    x33       obj1                            1
    x33       c10                           155
    x33       c12                           461
    x33       c15                           635
    x33       c26                           827
    x33       c35                           625
    x33       c41                           797
    x33       c46                           233
    x33       c48                           141
    x34       obj1                            1
    x34       c4                            598
    x34       c8                            218
    x34       c23                           295
    x34       c28                           335
    x34       c29                           102
    x34       c39                           778
    x34       c40                           639
    x34       c46                           228
    x34       c53                           494
    x34       c58                           667
    x35       obj1                            1
    x35       c3                            326
    x35       c15                           120
    x35       c34                           230
    x35       c46                           162
    x35       c48                           550
    x35       c51                           802
    x35       c59                           420
    x35       c67                           866
    x36       obj1                            1
    x36       c5                            821
    x36       c13                           602
    x36       c28                           433
    x36       c30                           422
    x36       c33                           325
    x36       c35                           511
    x36       c51                           849
    x36       c52                           514
    x36       c57                           687
    x36       c62                           179
    x37       obj1                            1
    x37       c19                           206
    x37       c27                           472
    x37       c43                           297
    x37       c59                           737
    x37       c61                           157
    x38       obj1                            1
    x38       c2                            100
    x38       c8                            110
    x38       c27                           878
    x38       c37                           730
    x38       c40                           246
    x38       c42                           307
    x38       c53                           243
    x38       c57                           327
    x38       c58                           895
    x38       c62                           228
    x38       c66                           975
    x39       obj1                            1
    x39       c17                           503
    x39       c38                           320
    x39       c64                           601
    x40       obj1                            1
    x40       c5                            531
    x40       c8                            345
    x40       c16                           913
    x40       c19                           905
    x40       c20                           621
    x40       c24                           774
    x40       c28                           103
    x40       c48                           756
    x40       c50                           960
    x40       c57                           703
    x40       c58                           298
    x40       c63                           704
    x40       c66                           861
    x40       c67                           100
    x41       obj1                            1
    x41       c20                           382
    x41       c30                           220
    x41       c44                           446
    x41       c55                           938
    x41       c65                           672
    x41       c66                           512
    x42       obj1                            1
    x42       c3                            470
    x42       c9                            878
    x42       c25                           665
    x42       c28                           261
    x42       c37                           260
    x42       c50                           611
    x42       c53                           408
    x42       c67                           825
    x43       obj1                            1
    x43       c2                            747
    x43       c3                            417
    x43       c27                           307
    x43       c28                           502
    x43       c35                           312
    x43       c39                           230
    x43       c44                           516
    x43       c52                           113
    x43       c53                           176
    x43       c70                           165
    x44       obj1                            1
    x44       c6                            562
    x44       c7                            397
    x44       c15                           405
    x44       c16                           872
    x44       c18                           525
    x44       c21                           770
    x44       c22                           146
    x44       c27                           618
    x44       c38                           615
    x44       c50                           465
    x44       c54                           433
    x44       c63                           992
    x44       c66                           365
    x44       c69                           165
    x44       c70                           220
    x45       obj1                            1
    x45       c1                            396
    x45       c14                           164
    x45       c23                           112
    x45       c25                           991
    x46       obj1                            1
    x46       c9                            648
    x46       c17                           239
    x46       c24                           599
    x46       c28                           252
    x46       c30                           395
    x46       c32                           386
    x47       obj1                            1
    x47       c20                           176
    x47       c31                           924
    x47       c55                           654
    x48       obj1                            1
    x48       c4                            985
    x48       c49                           211
    x48       c58                           793
    x49       obj1                            1
    x49       c2                            881
    x49       c7                            330
    x49       c13                           693
    x49       c58                           349
    x49       c61                           514
    x49       c65                           775
    x49       c69                           761
    x50       obj1                            1
    x50       c17                           297
    x50       c21                           831
    x50       c36                           849
    x50       c39                           173
    x50       c41                           895
    x50       c44                           674
    x50       c60                           938
    x50       c66                           836
    x51       obj1                            1
    x51       c1                            167
    x51       c2                            798
    x51       c17                           888
    x51       c22                           328
    x51       c25                           121
    x51       c26                           928
    x51       c34                           988
    x51       c42                           734
    x51       c47                           842
    x51       c48                           149
    x51       c56                           705
    x51       c58                           311
    x52       obj1                            1
    x52       c5                            511
    x52       c7                            319
    x52       c16                           533
    x52       c24                           819
    x52       c26                           752
    x52       c29                           277
    x52       c61                           310
    x52       c66                           379
    x53       obj1                            1
    x53       c7                            543
    x53       c14                           391
    x53       c26                           916
    x53       c30                           541
    x53       c31                           352
    x53       c35                           975
    x53       c46                           877
    x53       c62                           200
    x53       c66                           457
    x54       obj1                            1
    x54       c1                            909
    x54       c7                            772
    x54       c29                           236
    x54       c35                           890
    x54       c38                           780
    x54       c41                           703
    x54       c43                           951
    x54       c51                           397
    x54       c55                           213
    x54       c68                           706
    x55       obj1                            1
    x55       c1                            165
    x55       c4                            720
    x55       c5                            497
    x55       c24                           924
    x55       c27                           159
    x55       c29                           785
    x55       c49                           968
    x55       c59                           965
    x55       c63                           229
    x55       c70                           882
    x56       obj1                            1
    x56       c9                            599
    x56       c28                           230
    x56       c33                           102
    x56       c34                           425
    x56       c50                           411
    x56       c68                           203
    x57       obj1                            1
    x57       c7                            917
    x57       c20                           831
    x57       c24                           204
    x57       c44                           838
    x57       c51                           736
    x57       c59                           152
    x58       obj1                            1
    x58       c1                            884
    x58       c9                            663
    x58       c11                           702
    x58       c17                           917
    x58       c23                           369
    x58       c29                           574
    x58       c43                           943
    x58       c47                           131
    x58       c62                           384
    x59       obj1                            1
    x59       c1                            909
    x59       c2                            684
    x59       c3                            464
    x59       c4                            275
    x59       c6                            203
    x59       c34                           384
    x59       c41                           339
    x59       c50                           285
    x59       c51                           251
    x59       c56                           893
    x59       c61                           521
    x60       obj1                            1
    x60       c24                           294
    x60       c35                           826
    x60       c41                           697
    x60       c48                           264
    x60       c69                           750
    x61       obj1                            1
    x61       c10                           902
    x61       c26                           763
    x61       c34                           800
    x61       c39                           850
    x61       c43                           386
    x61       c45                           273
    x61       c47                           596
    x61       c49                           957
    x61       c63                           530
    x61       c67                           999
    x62       obj1                            1
    x62       c30                           560
    x62       c51                           713
    x62       c55                           260
    x62       c61                           404
    x62       c65                           638
    x63       obj1                            1
    x63       c11                           555
    x63       c19                           719
    x63       c39                           483
    x63       c40                           114
    x63       c44                           718
    x63       c48                           569
    x63       c57                           577
    x63       c58                           155
    x63       c68                           675
    x63       c70                           464
    x64       obj1                            1
    x64       c1                            405
    x64       c3                            876
    x64       c9                            917
    x64       c16                           944
    x64       c25                           818
    x64       c26                           714
    x64       c27                           129
    x64       c36                           210
    x64       c56                           882
    x64       c59                           806
    x65       obj1                            1
    x65       c19                           437
    x65       c26                           874
    x65       c38                           323
    x65       c51                           367
    x65       c64                           143
    x66       obj1                            1
    x66       c21                           682
    x66       c23                           827
    x66       c31                           814
    x66       c32                           446
    x66       c37                           452
    x66       c56                           972
    x66       c59                           681
    x67       obj1                            1
    x67       c2                            553
    x67       c3                            357
    x67       c4                            501
    x67       c5                            611
    x67       c8                            846
    x67       c27                           173
    x67       c29                           701
    x67       c34                           459
    x67       c64                           610
    x67       c65                           749
    x68       obj1                            1
    x68       c4                            862
    x68       c11                           849
    x68       c12                           730
    x68       c18                           822
    x68       c19                           826
    x68       c20                           934
    x68       c21                           849
    x68       c31                           579
    x68       c39                           812
    x68       c42                           317
    x68       c65                           124
    x69       obj1                            1
    x69       c3                            368
    x69       c29                           228
    x69       c44                           477
    x69       c63                           781
    x69       c69                           716
    x70       obj1                            1
    x70       c17                           418
    x70       c29                           653
    x70       c30                           926
    x70       c33                           184
    x70       c40                           340
    x70       c47                           604
    x70       c51                           833
    x70       c62                           735
    x70       c64                           977
    MARK0001  'MARKER'                 'INTEND'
RHS
    rhs       c1                           2265
    rhs       c2                           3218
    rhs       c3                           2449
    rhs       c4                           2835
    rhs       c5                           2891
    rhs       c6                           1237
    rhs       c7                           2214
    rhs       c8                           1261
    rhs       c9                           2753
    rhs       c10                          2163
    rhs       c11                          2188
    rhs       c12                          1775
    rhs       c13                          1707
    rhs       c14                          1484
    rhs       c15                          1388
    rhs       c16                          3780
    rhs       c17                          2973
    rhs       c18                          1831
    rhs       c19                          2990
    rhs       c20                          1472
    rhs       c21                          2096
    rhs       c22                           644
    rhs       c23                          1997
    rhs       c24                          2660
    rhs       c25                          1626
    rhs       c26                          3700
    rhs       c27                          1626
    rhs       c28                          1702
    rhs       c29                          2582
    rhs       c30                          2424
    rhs       c31                          2817
    rhs       c32                          1897
    rhs       c33                          1259
    rhs       c34                          2101
    rhs       c35                          2641
    rhs       c36                          1144
    rhs       c37                          2874
    rhs       c38                          2070
    rhs       c39                          3285
    rhs       c40                           670
    rhs       c41                          2019
    rhs       c42                          1317
    rhs       c43                          2254
    rhs       c44                          2039
    rhs       c45                          1225
    rhs       c46                          2226
    rhs       c47                          1087
    rhs       c48                          1679
    rhs       c49                          1512
    rhs       c50                          2403
    rhs       c51                          3077
    rhs       c52                          1066
    rhs       c53                          1054
    rhs       c54                          1333
    rhs       c55                          1211
    rhs       c56                          2320
    rhs       c57                          1905
    rhs       c58                          2999
    rhs       c59                          2059
    rhs       c60                          1568
    rhs       c61                          1449
    rhs       c62                          1329
    rhs       c63                          2593
    rhs       c64                          2340
    rhs       c65                          2590
    rhs       c66                          2931
    rhs       c67                          3226
    rhs       c68                          1646
    rhs       c69                          2365
    rhs       c70                          1993
BOUNDS
 LI bnd       x1        0
 LI bnd       x2        0
 LI bnd       x3        0
 LI bnd       x4        0
 LI bnd       x5        0
 LI bnd       x6        0
 LI bnd       x7        0
 LI bnd       x8        0
 LI bnd       x9        0
 LI bnd       x10       0
 LI bnd       x11       0
 LI bnd       x12       0
 LI bnd       x13       0
 LI bnd       x14       0
 LI bnd       x15       0
 LI bnd       x16       0
 LI bnd       x17       0
 LI bnd       x18       0
 LI bnd       x19       0
 LI bnd       x20       0
 LI bnd       x21       0
 LI bnd       x22       0
 LI bnd       x23       0
 LI bnd       x24       0
 LI bnd       x25       0
 LI bnd       x26       0
 LI bnd       x27       0
 LI bnd       x28       0
 LI bnd       x29       0
 LI bnd       x30       0
 LI bnd       x31       0
 LI bnd       x32       0
 LI bnd       x33       0
 LI bnd       x34       0
 LI bnd       x35       0
 LI bnd       x36       0
 LI bnd       x37       0
 LI bnd       x38       0
 LI bnd       x39       0
 LI bnd       x40       0
 LI bnd       x41       0
 LI bnd       x42       0
 LI bnd       x43       0
 LI bnd       x44       0
 LI bnd       x45       0
 LI bnd       x46       0
 LI bnd       x47       0
 LI bnd       x48       0
 LI bnd       x49       0
 LI bnd       x50       0
 LI bnd       x51       0
 LI bnd       x52       0
 LI bnd       x53       0
 LI bnd       x54       0
 LI bnd       x55       0
 LI bnd       x56       0
 LI bnd       x57       0
 LI bnd       x58       0
 LI bnd       x59       0
 LI bnd       x60       0
 LI bnd       x61       0
 LI bnd       x62       0
 LI bnd       x63       0
 LI bnd       x64       0
 LI bnd       x65       0
 LI bnd       x66       0
 LI bnd       x67       0
 LI bnd       x68       0
 LI bnd       x69       0
 LI bnd       x70       0
ENDATA
